0000000000000000
0000000000000000
0000000000000000
0000000000000000
0000110000000000
0000111111110000
0000000000110000
0000000001100000
0000000001100000
0000000011000000
0000000011000000
0000000011000000
0000000000000000
0000000000000000
0000000000000000
0000000000000000
